NAME : P111112.79350.tour
COMMENT : Length = 79350
COMMENT : Found by LKH-3 [Keld Helsgaun] Tue Dec 17 14:07:02 2024
TYPE : TOUR
DIMENSION : 120
TOUR_SECTION
1
111
2
88
67
18
112
3
44
11
74
109
39
23
61
80
68
32
98
77
73
70
85
108
22
65
72
36
31
49
20
83
82
69
17
94
28
59
51
87
50
63
24
93
29
15
34
35
56
55
110
79
25
21
57
38
103
40
89
30
42
13
54
47
75
66
33
64
12
26
19
76
48
99
45
104
78
95
46
41
37
96
92
102
81
91
43
105
53
71
86
107
16
62
97
52
101
113
4
114
5
115
6
14
27
60
116
7
58
84
100
117
8
118
9
106
90
119
10
120
-1
EOF
